data/ILP/exact/instance069.lp
Minimize
obj: 103y_1 + 107y_2 + 106y_3 + 108y_4 + 110y_5 + 201y_6 + 207y_7 + 210y_8 + 201y_9 + 208y_10 + 201y_11 + 205y_12 + 103y_13 + 104y_14 + 207y_15 + 103y_16 + 103y_17 + 110y_18 + 207y_19 + 101y_20 + 109y_21 + 108y_22 + 103y_23 + 210y_24 + 201y_25 + 108y_26 + 106y_27 + 109y_28 + 109y_29 + 104y_30 + 107y_31 + 210y_32 + 205y_33 + 103y_34 + 109y_35 + 103y_36 + 210y_37 + 201y_38 + 207y_39 + 210y_40 + 204y_41 + 203y_42 + 110y_43 + 109y_44 + 208y_45 + 203y_46 + 103y_47 + 210y_48 + 108y_49 + 203y_50 + 106y_51 + 110y_52 + 106y_53 + 110y_54 + 107y_55 + 109y_56 + 201y_57 + 104y_58 + 107y_59 + 106y_60 + 202y_61 + 108y_62 + 103y_63 + 105y_64 + 103y_65 + 101y_66 + 210y_67 + 101y_68 + 105y_69 + 104y_70 + 105y_71 + 101y_72 + 107y_73 + 203y_74 + 106y_75 + 109y_76 + 108y_77 + 107y_78 + 107y_79 + 204y_80 + 107y_81 + 107y_82 + 108y_83 + 106y_84 + 210y_85 + 107y_86 + 203y_87 + 105y_88 + 103y_89 + 103y_90 + 203y_91 + 210y_92 + 204y_93 + 208y_94 + 204y_95 + 206y_96 + 104y_97 + 104y_98 + 105y_99 + 108y_100 + 201y_101 + 104y_102 + 102y_103 + 103y_104 + 110y_105 + 105y_106 + 108y_107 + 205y_108 + 104y_109 + 110y_110 + 205y_111 + 102y_112 + 104y_113 + 110y_114 + 105y_115 + 205y_116 + 108y_117 + 108y_118 + 101y_119 + 110y_120 + 104y_121 + 203y_122 + 106y_123 + 106y_124 + 104y_125 + 109y_126 + 102y_127 + 108y_128 + 207y_129 + 104y_130 + 103y_131 + 109y_132 + 205y_133 + 102y_134 + 110y_135 + 109y_136 + 203y_137 + 106y_138 + 205y_139 + 205y_140 + 205y_141 + 201y_142 + 203y_143 + 207y_144 + 104y_145 + 205y_146 + 110y_147 + 101y_148 + 206y_149 + 108y_150 + 106y_151 + 105y_152 + 109y_153 + 110y_154 + 101y_155 + 202y_156 + 202y_157 + 204y_158 + 205y_159 + 210y_160 + 205y_161 + 206y_162 + 204y_163 + 105y_164 + 108y_165 + 105y_166 + 110y_167 + 101y_168 + 203y_169 + 203y_170 + 203y_171 + 201y_172 + 205y_173 + 202y_174 + 106y_175 + 108y_176 + 202y_177 + 103y_178 + 106y_179 + 109y_180 + 105y_181 + 203y_182 + 210y_183 + 201y_184 + 109y_185 + 106y_186 + 205y_187 + 110y_188 + 106y_189 + 204y_190 + 106y_191 + 109y_192 + 107y_193 + 209y_194 + 107y_195 + 207y_196 + 108y_197 + 105y_198 + 107y_199 + 110y_200 + 208y_201 + 201y_202 + 104y_203 + 206y_204 + 101y_205 + 206y_206 + 108y_207 + 103y_208 + 109y_209 + 110y_210 + 203y_211 + 206y_212 + 201y_213 + 203y_214 + 204y_215 + 210y_216 + 108y_217 + 108y_218 + 102y_219 + 108y_220 + 205y_221 + 105y_222 + 203y_223 + 205y_224 + 204y_225 + 205y_226 + 207y_227 + 206y_228 + 110y_229 + 106y_230 + 102y_231 + 204y_232 + 109y_233 + 110y_234 + 110y_235 + 203y_236 + 110y_237 + 107y_238 + 203y_239 + 104y_240 + 202y_241 + 201y_242 + 203y_243 + 207y_244 + 208y_245 + 201y_246 + 202y_247 + 201y_248 + 110y_249 + 106y_250 + 107y_251 + 106y_252 + 201y_253 + 104y_254 + 101y_255 + 110y_256 + 101y_257 + 106y_258 + 104y_259 + 104y_260 + 106y_261 + 106y_262 + 101y_263 + 204y_264 + 106y_265 + 108y_266 + 108y_267 + 107y_268 + 106y_269 + 201y_270 + 107y_271 + 110y_272 + 107y_273 + 108y_274 + 207y_275 + 106y_276 + 106y_277 + 206y_278 + 106y_279 + 103y_280 + 110y_281 + 106y_282 + 104y_283 + 107y_284 + 103y_285 + 106y_286 + 104y_287 + 206y_288 + 209y_289 + 205y_290 + 205y_291 + 201y_292 + 207y_293 + 204y_294 + 205y_295 + 103y_296 + 107y_297 + 107y_298 + 204y_299 + 104y_300 + 102y_301 + 103y_302 + 207y_303 + 101y_304 + 110y_305 + 110y_306 + 105y_307 + 102y_308 + 107y_309 + 104y_310 + 101y_311 + 203y_312 + 108y_313 + 105y_314 + 108y_315 + 106y_316 + 204y_317 + 101y_318 + 110y_319 + 204y_320 + 107y_321 + 108y_322 + 109y_323 + 104y_324 + 209y_325 + 102y_326 + 103y_327 + 106y_328 + 105y_329 + 110y_330 + 110y_331 + 102y_332 + 103y_333 + 107y_334 + 101y_335 + 201y_336 + 108y_337 + 103y_338 + 207y_339 + 205y_340 + 208y_341 + 108y_342 + 201y_343 + 207y_344 + 207y_345 + 207y_346 + 204y_347 + 202y_348 + 202y_349 + 103y_350 + 110y_351 + 205y_352 + 107y_353 + 110y_354 + 108y_355 + 104y_356 + 207y_357 + 106y_358 + 107y_359 + 106y_360 + 108y_361 + 208y_362 + 201y_363 + 101y_364 + 106y_365 + 101y_366 + 103y_367 + 110y_368 + 101y_369 + 207y_370 + 109y_371 + 103y_372 + 209y_373 + 202y_374 + 208y_375 + 206y_376 + 201y_377 + 206y_378 + 103y_379 + 103y_380 + 101y_381 + 106y_382 + 106y_383 + 206y_384
Subject To
x_385 = 11
x_386 = 1
x_387 = 1
x_388 = 1
x_389 = 1
x_390 = 1
x_391 = 1
x_392 = 1
x_393 = 1
x_394 = 1
x_395 = 1
x_396 = 1
x_1 - 12y_1 <= 0
x_2 - 12y_2 <= 0
x_3 - 12y_3 <= 0
x_4 - 12y_4 <= 0
x_5 - 12y_5 <= 0
x_6 - 12y_6 <= 0
x_7 - 12y_7 <= 0
x_8 - 12y_8 <= 0
x_9 - 12y_9 <= 0
x_10 - 12y_10 <= 0
x_11 - 12y_11 <= 0
x_12 - 12y_12 <= 0
x_13 - 12y_13 <= 0
x_14 - 12y_14 <= 0
x_15 - 12y_15 <= 0
x_16 - 12y_16 <= 0
x_17 - 12y_17 <= 0
x_18 - 12y_18 <= 0
x_19 - 12y_19 <= 0
x_20 - 12y_20 <= 0
x_21 - 12y_21 <= 0
x_22 - 12y_22 <= 0
x_23 - 12y_23 <= 0
x_24 - 12y_24 <= 0
x_25 - 12y_25 <= 0
x_26 - 12y_26 <= 0
x_27 - 12y_27 <= 0
x_28 - 12y_28 <= 0
x_29 - 12y_29 <= 0
x_30 - 12y_30 <= 0
x_31 - 12y_31 <= 0
x_32 - 12y_32 <= 0
x_33 - 12y_33 <= 0
x_34 - 12y_34 <= 0
x_35 - 12y_35 <= 0
x_36 - 12y_36 <= 0
x_37 - 12y_37 <= 0
x_38 - 12y_38 <= 0
x_39 - 12y_39 <= 0
x_40 - 12y_40 <= 0
x_41 - 12y_41 <= 0
x_42 - 12y_42 <= 0
x_43 - 12y_43 <= 0
x_44 - 12y_44 <= 0
x_45 - 12y_45 <= 0
x_46 - 12y_46 <= 0
x_47 - 12y_47 <= 0
x_48 - 12y_48 <= 0
x_49 - 12y_49 <= 0
x_50 - 12y_50 <= 0
x_51 - 12y_51 <= 0
x_52 - 12y_52 <= 0
x_53 - 12y_53 <= 0
x_54 - 12y_54 <= 0
x_55 - 12y_55 <= 0
x_56 - 12y_56 <= 0
x_57 - 12y_57 <= 0
x_58 - 12y_58 <= 0
x_59 - 12y_59 <= 0
x_60 - 12y_60 <= 0
x_61 - 12y_61 <= 0
x_62 - 12y_62 <= 0
x_63 - 12y_63 <= 0
x_64 - 12y_64 <= 0
x_65 - 12y_65 <= 0
x_66 - 12y_66 <= 0
x_67 - 12y_67 <= 0
x_68 - 12y_68 <= 0
x_69 - 12y_69 <= 0
x_70 - 12y_70 <= 0
x_71 - 12y_71 <= 0
x_72 - 12y_72 <= 0
x_73 - 12y_73 <= 0
x_74 - 12y_74 <= 0
x_75 - 12y_75 <= 0
x_76 - 12y_76 <= 0
x_77 - 12y_77 <= 0
x_78 - 12y_78 <= 0
x_79 - 12y_79 <= 0
x_80 - 12y_80 <= 0
x_81 - 12y_81 <= 0
x_82 - 12y_82 <= 0
x_83 - 12y_83 <= 0
x_84 - 12y_84 <= 0
x_85 - 12y_85 <= 0
x_86 - 12y_86 <= 0
x_87 - 12y_87 <= 0
x_88 - 12y_88 <= 0
x_89 - 12y_89 <= 0
x_90 - 12y_90 <= 0
x_91 - 12y_91 <= 0
x_92 - 12y_92 <= 0
x_93 - 12y_93 <= 0
x_94 - 12y_94 <= 0
x_95 - 12y_95 <= 0
x_96 - 12y_96 <= 0
x_97 - 12y_97 <= 0
x_98 - 12y_98 <= 0
x_99 - 12y_99 <= 0
x_100 - 12y_100 <= 0
x_101 - 12y_101 <= 0
x_102 - 12y_102 <= 0
x_103 - 12y_103 <= 0
x_104 - 12y_104 <= 0
x_105 - 12y_105 <= 0
x_106 - 12y_106 <= 0
x_107 - 12y_107 <= 0
x_108 - 12y_108 <= 0
x_109 - 12y_109 <= 0
x_110 - 12y_110 <= 0
x_111 - 12y_111 <= 0
x_112 - 12y_112 <= 0
x_113 - 12y_113 <= 0
x_114 - 12y_114 <= 0
x_115 - 12y_115 <= 0
x_116 - 12y_116 <= 0
x_117 - 12y_117 <= 0
x_118 - 12y_118 <= 0
x_119 - 12y_119 <= 0
x_120 - 12y_120 <= 0
x_121 - 12y_121 <= 0
x_122 - 12y_122 <= 0
x_123 - 12y_123 <= 0
x_124 - 12y_124 <= 0
x_125 - 12y_125 <= 0
x_126 - 12y_126 <= 0
x_127 - 12y_127 <= 0
x_128 - 12y_128 <= 0
x_129 - 12y_129 <= 0
x_130 - 12y_130 <= 0
x_131 - 12y_131 <= 0
x_132 - 12y_132 <= 0
x_133 - 12y_133 <= 0
x_134 - 12y_134 <= 0
x_135 - 12y_135 <= 0
x_136 - 12y_136 <= 0
x_137 - 12y_137 <= 0
x_138 - 12y_138 <= 0
x_139 - 12y_139 <= 0
x_140 - 12y_140 <= 0
x_141 - 12y_141 <= 0
x_142 - 12y_142 <= 0
x_143 - 12y_143 <= 0
x_144 - 12y_144 <= 0
x_145 - 12y_145 <= 0
x_146 - 12y_146 <= 0
x_147 - 12y_147 <= 0
x_148 - 12y_148 <= 0
x_149 - 12y_149 <= 0
x_150 - 12y_150 <= 0
x_151 - 12y_151 <= 0
x_152 - 12y_152 <= 0
x_153 - 12y_153 <= 0
x_154 - 12y_154 <= 0
x_155 - 12y_155 <= 0
x_156 - 12y_156 <= 0
x_157 - 12y_157 <= 0
x_158 - 12y_158 <= 0
x_159 - 12y_159 <= 0
x_160 - 12y_160 <= 0
x_161 - 12y_161 <= 0
x_162 - 12y_162 <= 0
x_163 - 12y_163 <= 0
x_164 - 12y_164 <= 0
x_165 - 12y_165 <= 0
x_166 - 12y_166 <= 0
x_167 - 12y_167 <= 0
x_168 - 12y_168 <= 0
x_169 - 12y_169 <= 0
x_170 - 12y_170 <= 0
x_171 - 12y_171 <= 0
x_172 - 12y_172 <= 0
x_173 - 12y_173 <= 0
x_174 - 12y_174 <= 0
x_175 - 12y_175 <= 0
x_176 - 12y_176 <= 0
x_177 - 12y_177 <= 0
x_178 - 12y_178 <= 0
x_179 - 12y_179 <= 0
x_180 - 12y_180 <= 0
x_181 - 12y_181 <= 0
x_182 - 12y_182 <= 0
x_183 - 12y_183 <= 0
x_184 - 12y_184 <= 0
x_185 - 12y_185 <= 0
x_186 - 12y_186 <= 0
x_187 - 12y_187 <= 0
x_188 - 12y_188 <= 0
x_189 - 12y_189 <= 0
x_190 - 12y_190 <= 0
x_191 - 12y_191 <= 0
x_192 - 12y_192 <= 0
x_193 - 12y_193 <= 0
x_194 - 12y_194 <= 0
x_195 - 12y_195 <= 0
x_196 - 12y_196 <= 0
x_197 - 12y_197 <= 0
x_198 - 12y_198 <= 0
x_199 - 12y_199 <= 0
x_200 - 12y_200 <= 0
x_201 - 12y_201 <= 0
x_202 - 12y_202 <= 0
x_203 - 12y_203 <= 0
x_204 - 12y_204 <= 0
x_205 - 12y_205 <= 0
x_206 - 12y_206 <= 0
x_207 - 12y_207 <= 0
x_208 - 12y_208 <= 0
x_209 - 12y_209 <= 0
x_210 - 12y_210 <= 0
x_211 - 12y_211 <= 0
x_212 - 12y_212 <= 0
x_213 - 12y_213 <= 0
x_214 - 12y_214 <= 0
x_215 - 12y_215 <= 0
x_216 - 12y_216 <= 0
x_217 - 12y_217 <= 0
x_218 - 12y_218 <= 0
x_219 - 12y_219 <= 0
x_220 - 12y_220 <= 0
x_221 - 12y_221 <= 0
x_222 - 12y_222 <= 0
x_223 - 12y_223 <= 0
x_224 - 12y_224 <= 0
x_225 - 12y_225 <= 0
x_226 - 12y_226 <= 0
x_227 - 12y_227 <= 0
x_228 - 12y_228 <= 0
x_229 - 12y_229 <= 0
x_230 - 12y_230 <= 0
x_231 - 12y_231 <= 0
x_232 - 12y_232 <= 0
x_233 - 12y_233 <= 0
x_234 - 12y_234 <= 0
x_235 - 12y_235 <= 0
x_236 - 12y_236 <= 0
x_237 - 12y_237 <= 0
x_238 - 12y_238 <= 0
x_239 - 12y_239 <= 0
x_240 - 12y_240 <= 0
x_241 - 12y_241 <= 0
x_242 - 12y_242 <= 0
x_243 - 12y_243 <= 0
x_244 - 12y_244 <= 0
x_245 - 12y_245 <= 0
x_246 - 12y_246 <= 0
x_247 - 12y_247 <= 0
x_248 - 12y_248 <= 0
x_249 - 12y_249 <= 0
x_250 - 12y_250 <= 0
x_251 - 12y_251 <= 0
x_252 - 12y_252 <= 0
x_253 - 12y_253 <= 0
x_254 - 12y_254 <= 0
x_255 - 12y_255 <= 0
x_256 - 12y_256 <= 0
x_257 - 12y_257 <= 0
x_258 - 12y_258 <= 0
x_259 - 12y_259 <= 0
x_260 - 12y_260 <= 0
x_261 - 12y_261 <= 0
x_262 - 12y_262 <= 0
x_263 - 12y_263 <= 0
x_264 - 12y_264 <= 0
x_265 - 12y_265 <= 0
x_266 - 12y_266 <= 0
x_267 - 12y_267 <= 0
x_268 - 12y_268 <= 0
x_269 - 12y_269 <= 0
x_270 - 12y_270 <= 0
x_271 - 12y_271 <= 0
x_272 - 12y_272 <= 0
x_273 - 12y_273 <= 0
x_274 - 12y_274 <= 0
x_275 - 12y_275 <= 0
x_276 - 12y_276 <= 0
x_277 - 12y_277 <= 0
x_278 - 12y_278 <= 0
x_279 - 12y_279 <= 0
x_280 - 12y_280 <= 0
x_281 - 12y_281 <= 0
x_282 - 12y_282 <= 0
x_283 - 12y_283 <= 0
x_284 - 12y_284 <= 0
x_285 - 12y_285 <= 0
x_286 - 12y_286 <= 0
x_287 - 12y_287 <= 0
x_288 - 12y_288 <= 0
x_289 - 12y_289 <= 0
x_290 - 12y_290 <= 0
x_291 - 12y_291 <= 0
x_292 - 12y_292 <= 0
x_293 - 12y_293 <= 0
x_294 - 12y_294 <= 0
x_295 - 12y_295 <= 0
x_296 - 12y_296 <= 0
x_297 - 12y_297 <= 0
x_298 - 12y_298 <= 0
x_299 - 12y_299 <= 0
x_300 - 12y_300 <= 0
x_301 - 12y_301 <= 0
x_302 - 12y_302 <= 0
x_303 - 12y_303 <= 0
x_304 - 12y_304 <= 0
x_305 - 12y_305 <= 0
x_306 - 12y_306 <= 0
x_307 - 12y_307 <= 0
x_308 - 12y_308 <= 0
x_309 - 12y_309 <= 0
x_310 - 12y_310 <= 0
x_311 - 12y_311 <= 0
x_312 - 12y_312 <= 0
x_313 - 12y_313 <= 0
x_314 - 12y_314 <= 0
x_315 - 12y_315 <= 0
x_316 - 12y_316 <= 0
x_317 - 12y_317 <= 0
x_318 - 12y_318 <= 0
x_319 - 12y_319 <= 0
x_320 - 12y_320 <= 0
x_321 - 12y_321 <= 0
x_322 - 12y_322 <= 0
x_323 - 12y_323 <= 0
x_324 - 12y_324 <= 0
x_325 - 12y_325 <= 0
x_326 - 12y_326 <= 0
x_327 - 12y_327 <= 0
x_328 - 12y_328 <= 0
x_329 - 12y_329 <= 0
x_330 - 12y_330 <= 0
x_331 - 12y_331 <= 0
x_332 - 12y_332 <= 0
x_333 - 12y_333 <= 0
x_334 - 12y_334 <= 0
x_335 - 12y_335 <= 0
x_336 - 12y_336 <= 0
x_337 - 12y_337 <= 0
x_338 - 12y_338 <= 0
x_339 - 12y_339 <= 0
x_340 - 12y_340 <= 0
x_341 - 12y_341 <= 0
x_342 - 12y_342 <= 0
x_343 - 12y_343 <= 0
x_344 - 12y_344 <= 0
x_345 - 12y_345 <= 0
x_346 - 12y_346 <= 0
x_347 - 12y_347 <= 0
x_348 - 12y_348 <= 0
x_349 - 12y_349 <= 0
x_350 - 12y_350 <= 0
x_351 - 12y_351 <= 0
x_352 - 12y_352 <= 0
x_353 - 12y_353 <= 0
x_354 - 12y_354 <= 0
x_355 - 12y_355 <= 0
x_356 - 12y_356 <= 0
x_357 - 12y_357 <= 0
x_358 - 12y_358 <= 0
x_359 - 12y_359 <= 0
x_360 - 12y_360 <= 0
x_361 - 12y_361 <= 0
x_362 - 12y_362 <= 0
x_363 - 12y_363 <= 0
x_364 - 12y_364 <= 0
x_365 - 12y_365 <= 0
x_366 - 12y_366 <= 0
x_367 - 12y_367 <= 0
x_368 - 12y_368 <= 0
x_369 - 12y_369 <= 0
x_370 - 12y_370 <= 0
x_371 - 12y_371 <= 0
x_372 - 12y_372 <= 0
x_373 - 12y_373 <= 0
x_374 - 12y_374 <= 0
x_375 - 12y_375 <= 0
x_376 - 12y_376 <= 0
x_377 - 12y_377 <= 0
x_378 - 12y_378 <= 0
x_379 - 12y_379 <= 0
x_380 - 12y_380 <= 0
x_381 - 12y_381 <= 0
x_382 - 12y_382 <= 0
x_383 - 12y_383 <= 0
x_384 - 12y_384 <= 0
x_6 - x_11 +  x_3 - x_27 +  x_5 - x_54 +  x_4 - x_100 +  x_2 - x_193 +  x_1 - x_13 = 0
x_12 - x_108 - x_387 +  x_9 - x_57 +  x_8 - x_32 +  x_7 - x_19 +  x_10 - x_201 +  x_11 - x_6 = 0
x_17 - x_23 +  x_15 - x_39 +  x_16 - x_63 +  x_18 - x_210 +  x_13 - x_1 +  x_14 - x_109 = 0
x_20 - x_68 +  x_23 - x_17 +  x_22 - x_117 +  x_21 - x_44 +  x_24 - x_216 +  x_19 - x_7 = 0
x_29 - x_35 +  x_30 - x_125 +  x_27 - x_3 +  x_26 - x_217 +  x_28 - x_76 +  x_25 - x_38 = 0
x_34 - x_47 +  x_32 - x_8 +  x_35 - x_29 +  x_36 - x_131 +  x_33 - x_224 +  x_31 - x_79 = 0
x_37 - x_85 +  x_40 - x_48 +  x_38 - x_25 +  x_41 - x_232 +  x_42 - x_137 +  x_39 - x_15 - x_390 = 0
x_43 - x_235 +  x_47 - x_34 +  x_44 - x_21 +  x_48 - x_40 +  x_45 - x_94 +  x_46 - x_143 = 0
x_49 - x_62 +  x_50 - x_243 +  x_52 - x_147 +  x_53 - x_60 +  x_51 - x_75 +  x_54 - x_5 = 0
x_55 - x_81 +  x_58 - x_70 +  x_57 - x_9 +  x_59 - x_251 +  x_56 - x_153 +  x_60 - x_53 = 0
x_66 - x_257 +  x_63 - x_16 +  x_61 - x_157 +  x_64 - x_71 +  x_65 - x_89 +  x_62 - x_49 = 0
x_68 - x_20 +  x_70 - x_58 +  x_71 - x_64 +  x_72 - x_263 +  x_69 - x_166 +  x_67 - x_92 = 0
x_74 - x_169 +  x_77 - x_83 +  x_75 - x_51 +  x_78 - x_268 +  x_73 - x_86 +  x_76 - x_28 = 0
x_80 - x_93 +  x_83 - x_77 +  x_81 - x_55 +  x_84 - x_179 +  x_82 - x_273 +  x_79 - x_31 = 0
x_85 - x_37 +  x_86 - x_73 +  x_89 - x_65 +  x_87 - x_91 +  x_88 - x_181 +  x_90 - x_280 = 0
x_94 - x_45 +  x_91 - x_87 +  x_92 - x_67 +  x_93 - x_80 +  x_385 +  x_95 - x_190 +  x_96 - x_288 = 0
x_99 - x_106 +  x_97 - x_145 +  x_100 - x_4 +  x_101 - x_292 +  x_102 - x_113 +  x_98 - x_121 = 0
x_105 - x_154 +  x_108 - x_12 +  x_103 - x_127 +  x_106 - x_99 +  x_107 - x_118 +  x_104 - x_296 = 0
x_114 - x_120 +  x_109 - x_14 +  x_111 - x_159 +  x_112 - x_301 +  x_113 - x_102 +  x_110 - x_135 = 0
x_120 - x_114 +  x_116 - x_141 +  x_118 - x_107 +  x_117 - x_22 +  x_119 - x_168 +  x_115 - x_307 = 0
x_122 - x_170 +  x_124 - x_138 +  x_125 - x_30 +  x_126 - x_132 +  x_121 - x_98 +  x_123 - x_316 = 0
x_128 - x_176 +  x_130 - x_324 +  x_131 - x_36 +  x_132 - x_126 +  x_127 - x_103 +  x_129 - x_144 = 0
x_134 - x_326 +  x_136 - x_185 +  x_133 - x_139 +  x_138 - x_124 +  x_137 - x_42 +  x_135 - x_110 = 0
x_139 - x_133 +  x_142 - x_336 +  x_143 - x_46 - x_391 +  x_140 - x_187 +  x_144 - x_129 +  x_141 - x_116 = 0
x_147 - x_52 +  x_145 - x_97 +  x_150 - x_342 +  x_148 - x_155 +  x_146 - x_173 +  x_149 - x_162 = 0
x_153 - x_56 +  x_156 - x_348 +  x_154 - x_105 +  x_152 - x_164 +  x_151 - x_175 +  x_155 - x_148 = 0
-x_394 +  x_161 - x_352 +  x_160 - x_183 +  x_159 - x_111 +  x_162 - x_149 +  x_157 - x_61 +  x_158 - x_163 = 0
x_166 - x_69 +  x_168 - x_119 +  x_165 - x_355 +  x_163 - x_158 +  x_167 - x_188 +  x_164 - x_152 = 0
x_171 - x_182 +  x_174 - x_177 +  x_170 - x_122 +  x_173 - x_146 +  x_169 - x_74 +  x_172 - x_363 - x_395 = 0
x_176 - x_128 +  x_179 - x_84 +  x_180 - x_192 +  x_175 - x_151 +  x_177 - x_174 +  x_178 - x_372 = 0
x_183 - x_160 +  x_182 - x_171 +  x_181 - x_88 +  x_186 - x_191 +  x_184 - x_377 +  x_185 - x_136 = 0
x_189 - x_382 +  x_192 - x_180 +  x_187 - x_140 +  x_191 - x_186 +  x_188 - x_167 +  x_190 - x_95 = 0
x_198 - x_222 +  x_196 - x_244 +  x_194 - x_289 +  x_197 - x_207 +  x_195 - x_199 +  x_193 - x_2 = 0
x_201 - x_10 +  x_204 - x_228 +  x_199 - x_195 +  x_200 - x_249 +  x_202 - x_213 +  x_203 - x_300 = 0
x_209 - x_233 +  x_210 - x_18 +  x_208 - x_302 +  x_207 - x_197 +  x_206 - x_212 +  x_205 - x_255 = 0
-x_388 +  x_214 - x_312 +  x_216 - x_24 +  x_213 - x_202 +  x_215 - x_264 +  x_212 - x_206 +  x_211 - x_239 = 0
x_218 - x_266 +  x_220 - x_315 +  x_219 - x_231 +  x_222 - x_198 +  x_221 - x_226 +  x_217 - x_26 = 0
-x_389 +  x_224 - x_33 +  x_223 - x_236 +  x_227 - x_275 +  x_225 - x_320 +  x_226 - x_221 +  x_228 - x_204 = 0
x_232 - x_41 +  x_229 - x_237 +  x_230 - x_328 +  x_234 - x_281 +  x_231 - x_219 +  x_233 - x_209 = 0
x_239 - x_211 +  x_235 - x_43 +  x_237 - x_229 +  x_240 - x_287 +  x_236 - x_223 +  x_238 - x_334 = 0
x_244 - x_196 +  x_242 - x_253 - x_392 +  x_245 - x_341 +  x_246 - x_270 +  x_241 - x_247 +  x_243 - x_50 = 0
x_249 - x_200 +  x_250 - x_262 +  x_251 - x_59 +  x_252 - x_276 +  x_248 - x_343 +  x_247 - x_241 = 0
x_255 - x_205 +  x_258 - x_282 +  x_254 - x_260 +  x_256 - x_351 +  x_253 - x_242 +  x_257 - x_66 = 0
x_262 - x_250 +  x_264 - x_215 +  x_260 - x_254 +  x_263 - x_72 +  x_261 - x_358 +  x_259 - x_283 = 0
x_268 - x_78 +  x_266 - x_218 +  x_270 - x_246 +  x_269 - x_365 +  x_265 - x_277 +  x_267 - x_274 = 0
x_274 - x_267 +  x_276 - x_252 +  x_272 - x_368 +  x_271 - x_284 +  x_275 - x_227 +  x_273 - x_82 = 0
x_279 - x_286 +  x_280 - x_90 +  x_281 - x_234 +  x_282 - x_258 +  x_278 - x_376 +  x_277 - x_265 = 0
x_283 - x_259 +  x_286 - x_279 +  x_287 - x_240 +  x_284 - x_271 +  x_285 - x_380 +  x_288 - x_96 = 0
x_294 - x_317 +  x_289 - x_194 +  x_290 - x_295 +  x_293 - x_303 - x_386 +  x_292 - x_101 +  x_291 - x_340 = 0
x_300 - x_203 +  x_298 - x_321 +  x_295 - x_290 +  x_299 - x_347 +  x_296 - x_104 +  x_297 - x_309 = 0
x_301 - x_112 +  x_302 - x_208 +  x_303 - x_293 +  x_304 - x_311 +  x_306 - x_354 +  x_305 - x_330 = 0
x_312 - x_214 +  x_311 - x_304 +  x_308 - x_332 +  x_309 - x_297 +  x_307 - x_115 +  x_310 - x_356 = 0
x_316 - x_123 +  x_313 - x_322 +  x_317 - x_294 +  x_314 - x_329 +  x_318 - x_366 +  x_315 - x_220 = 0
x_323 - x_371 +  x_322 - x_313 +  x_319 - x_331 +  x_320 - x_225 +  x_324 - x_130 +  x_321 - x_298 = 0
x_326 - x_134 +  x_325 - x_373 +  x_329 - x_314 +  x_330 - x_305 +  x_327 - x_333 +  x_328 - x_230 = 0
x_332 - x_308 +  x_335 - x_381 +  x_336 - x_142 +  x_333 - x_327 +  x_331 - x_319 +  x_334 - x_238 = 0
x_338 - x_350 +  x_337 - x_361 +  x_342 - x_150 +  x_340 - x_291 +  x_341 - x_245 +  x_339 - x_344 = 0
x_348 - x_156 - x_393 +  x_343 - x_248 +  x_347 - x_299 +  x_344 - x_339 +  x_345 - x_357 +  x_346 - x_370 = 0
x_349 - x_374 +  x_352 - x_161 +  x_351 - x_256 +  x_354 - x_306 +  x_350 - x_338 +  x_353 - x_359 = 0
x_360 - x_383 +  x_356 - x_310 +  x_358 - x_261 +  x_359 - x_353 +  x_357 - x_345 +  x_355 - x_165 = 0
x_363 - x_172 +  x_362 - x_375 +  x_364 - x_369 +  x_365 - x_269 +  x_366 - x_318 +  x_361 - x_337 = 0
x_369 - x_364 +  x_371 - x_323 +  x_368 - x_272 +  x_367 - x_379 +  x_370 - x_346 +  x_372 - x_178 = 0
x_373 - x_325 +  x_374 - x_349 +  x_377 - x_184 +  x_375 - x_362 +  x_378 - x_384 - x_396 +  x_376 - x_278 = 0
x_379 - x_367 +  x_380 - x_285 +  x_383 - x_360 +  x_381 - x_335 +  x_382 - x_189 +  x_384 - x_378 = 0
Bounds
x_1 >= 0
x_2 >= 0
x_3 >= 0
x_4 >= 0
x_5 >= 0
x_6 >= 0
x_7 >= 0
x_8 >= 0
x_9 >= 0
x_10 >= 0
x_11 >= 0
x_12 >= 0
x_13 >= 0
x_14 >= 0
x_15 >= 0
x_16 >= 0
x_17 >= 0
x_18 >= 0
x_19 >= 0
x_20 >= 0
x_21 >= 0
x_22 >= 0
x_23 >= 0
x_24 >= 0
x_25 >= 0
x_26 >= 0
x_27 >= 0
x_28 >= 0
x_29 >= 0
x_30 >= 0
x_31 >= 0
x_32 >= 0
x_33 >= 0
x_34 >= 0
x_35 >= 0
x_36 >= 0
x_37 >= 0
x_38 >= 0
x_39 >= 0
x_40 >= 0
x_41 >= 0
x_42 >= 0
x_43 >= 0
x_44 >= 0
x_45 >= 0
x_46 >= 0
x_47 >= 0
x_48 >= 0
x_49 >= 0
x_50 >= 0
x_51 >= 0
x_52 >= 0
x_53 >= 0
x_54 >= 0
x_55 >= 0
x_56 >= 0
x_57 >= 0
x_58 >= 0
x_59 >= 0
x_60 >= 0
x_61 >= 0
x_62 >= 0
x_63 >= 0
x_64 >= 0
x_65 >= 0
x_66 >= 0
x_67 >= 0
x_68 >= 0
x_69 >= 0
x_70 >= 0
x_71 >= 0
x_72 >= 0
x_73 >= 0
x_74 >= 0
x_75 >= 0
x_76 >= 0
x_77 >= 0
x_78 >= 0
x_79 >= 0
x_80 >= 0
x_81 >= 0
x_82 >= 0
x_83 >= 0
x_84 >= 0
x_85 >= 0
x_86 >= 0
x_87 >= 0
x_88 >= 0
x_89 >= 0
x_90 >= 0
x_91 >= 0
x_92 >= 0
x_93 >= 0
x_94 >= 0
x_95 >= 0
x_96 >= 0
x_97 >= 0
x_98 >= 0
x_99 >= 0
x_100 >= 0
x_101 >= 0
x_102 >= 0
x_103 >= 0
x_104 >= 0
x_105 >= 0
x_106 >= 0
x_107 >= 0
x_108 >= 0
x_109 >= 0
x_110 >= 0
x_111 >= 0
x_112 >= 0
x_113 >= 0
x_114 >= 0
x_115 >= 0
x_116 >= 0
x_117 >= 0
x_118 >= 0
x_119 >= 0
x_120 >= 0
x_121 >= 0
x_122 >= 0
x_123 >= 0
x_124 >= 0
x_125 >= 0
x_126 >= 0
x_127 >= 0
x_128 >= 0
x_129 >= 0
x_130 >= 0
x_131 >= 0
x_132 >= 0
x_133 >= 0
x_134 >= 0
x_135 >= 0
x_136 >= 0
x_137 >= 0
x_138 >= 0
x_139 >= 0
x_140 >= 0
x_141 >= 0
x_142 >= 0
x_143 >= 0
x_144 >= 0
x_145 >= 0
x_146 >= 0
x_147 >= 0
x_148 >= 0
x_149 >= 0
x_150 >= 0
x_151 >= 0
x_152 >= 0
x_153 >= 0
x_154 >= 0
x_155 >= 0
x_156 >= 0
x_157 >= 0
x_158 >= 0
x_159 >= 0
x_160 >= 0
x_161 >= 0
x_162 >= 0
x_163 >= 0
x_164 >= 0
x_165 >= 0
x_166 >= 0
x_167 >= 0
x_168 >= 0
x_169 >= 0
x_170 >= 0
x_171 >= 0
x_172 >= 0
x_173 >= 0
x_174 >= 0
x_175 >= 0
x_176 >= 0
x_177 >= 0
x_178 >= 0
x_179 >= 0
x_180 >= 0
x_181 >= 0
x_182 >= 0
x_183 >= 0
x_184 >= 0
x_185 >= 0
x_186 >= 0
x_187 >= 0
x_188 >= 0
x_189 >= 0
x_190 >= 0
x_191 >= 0
x_192 >= 0
x_193 >= 0
x_194 >= 0
x_195 >= 0
x_196 >= 0
x_197 >= 0
x_198 >= 0
x_199 >= 0
x_200 >= 0
x_201 >= 0
x_202 >= 0
x_203 >= 0
x_204 >= 0
x_205 >= 0
x_206 >= 0
x_207 >= 0
x_208 >= 0
x_209 >= 0
x_210 >= 0
x_211 >= 0
x_212 >= 0
x_213 >= 0
x_214 >= 0
x_215 >= 0
x_216 >= 0
x_217 >= 0
x_218 >= 0
x_219 >= 0
x_220 >= 0
x_221 >= 0
x_222 >= 0
x_223 >= 0
x_224 >= 0
x_225 >= 0
x_226 >= 0
x_227 >= 0
x_228 >= 0
x_229 >= 0
x_230 >= 0
x_231 >= 0
x_232 >= 0
x_233 >= 0
x_234 >= 0
x_235 >= 0
x_236 >= 0
x_237 >= 0
x_238 >= 0
x_239 >= 0
x_240 >= 0
x_241 >= 0
x_242 >= 0
x_243 >= 0
x_244 >= 0
x_245 >= 0
x_246 >= 0
x_247 >= 0
x_248 >= 0
x_249 >= 0
x_250 >= 0
x_251 >= 0
x_252 >= 0
x_253 >= 0
x_254 >= 0
x_255 >= 0
x_256 >= 0
x_257 >= 0
x_258 >= 0
x_259 >= 0
x_260 >= 0
x_261 >= 0
x_262 >= 0
x_263 >= 0
x_264 >= 0
x_265 >= 0
x_266 >= 0
x_267 >= 0
x_268 >= 0
x_269 >= 0
x_270 >= 0
x_271 >= 0
x_272 >= 0
x_273 >= 0
x_274 >= 0
x_275 >= 0
x_276 >= 0
x_277 >= 0
x_278 >= 0
x_279 >= 0
x_280 >= 0
x_281 >= 0
x_282 >= 0
x_283 >= 0
x_284 >= 0
x_285 >= 0
x_286 >= 0
x_287 >= 0
x_288 >= 0
x_289 >= 0
x_290 >= 0
x_291 >= 0
x_292 >= 0
x_293 >= 0
x_294 >= 0
x_295 >= 0
x_296 >= 0
x_297 >= 0
x_298 >= 0
x_299 >= 0
x_300 >= 0
x_301 >= 0
x_302 >= 0
x_303 >= 0
x_304 >= 0
x_305 >= 0
x_306 >= 0
x_307 >= 0
x_308 >= 0
x_309 >= 0
x_310 >= 0
x_311 >= 0
x_312 >= 0
x_313 >= 0
x_314 >= 0
x_315 >= 0
x_316 >= 0
x_317 >= 0
x_318 >= 0
x_319 >= 0
x_320 >= 0
x_321 >= 0
x_322 >= 0
x_323 >= 0
x_324 >= 0
x_325 >= 0
x_326 >= 0
x_327 >= 0
x_328 >= 0
x_329 >= 0
x_330 >= 0
x_331 >= 0
x_332 >= 0
x_333 >= 0
x_334 >= 0
x_335 >= 0
x_336 >= 0
x_337 >= 0
x_338 >= 0
x_339 >= 0
x_340 >= 0
x_341 >= 0
x_342 >= 0
x_343 >= 0
x_344 >= 0
x_345 >= 0
x_346 >= 0
x_347 >= 0
x_348 >= 0
x_349 >= 0
x_350 >= 0
x_351 >= 0
x_352 >= 0
x_353 >= 0
x_354 >= 0
x_355 >= 0
x_356 >= 0
x_357 >= 0
x_358 >= 0
x_359 >= 0
x_360 >= 0
x_361 >= 0
x_362 >= 0
x_363 >= 0
x_364 >= 0
x_365 >= 0
x_366 >= 0
x_367 >= 0
x_368 >= 0
x_369 >= 0
x_370 >= 0
x_371 >= 0
x_372 >= 0
x_373 >= 0
x_374 >= 0
x_375 >= 0
x_376 >= 0
x_377 >= 0
x_378 >= 0
x_379 >= 0
x_380 >= 0
x_381 >= 0
x_382 >= 0
x_383 >= 0
x_384 >= 0
x_385 >= 0
x_386 >= 0
x_387 >= 0
x_388 >= 0
x_389 >= 0
x_390 >= 0
x_391 >= 0
x_392 >= 0
x_393 >= 0
x_394 >= 0
x_395 >= 0
x_396 >= 0
General
Binaries
y_1
y_2
y_3
y_4
y_5
y_6
y_7
y_8
y_9
y_10
y_11
y_12
y_13
y_14
y_15
y_16
y_17
y_18
y_19
y_20
y_21
y_22
y_23
y_24
y_25
y_26
y_27
y_28
y_29
y_30
y_31
y_32
y_33
y_34
y_35
y_36
y_37
y_38
y_39
y_40
y_41
y_42
y_43
y_44
y_45
y_46
y_47
y_48
y_49
y_50
y_51
y_52
y_53
y_54
y_55
y_56
y_57
y_58
y_59
y_60
y_61
y_62
y_63
y_64
y_65
y_66
y_67
y_68
y_69
y_70
y_71
y_72
y_73
y_74
y_75
y_76
y_77
y_78
y_79
y_80
y_81
y_82
y_83
y_84
y_85
y_86
y_87
y_88
y_89
y_90
y_91
y_92
y_93
y_94
y_95
y_96
y_97
y_98
y_99
y_100
y_101
y_102
y_103
y_104
y_105
y_106
y_107
y_108
y_109
y_110
y_111
y_112
y_113
y_114
y_115
y_116
y_117
y_118
y_119
y_120
y_121
y_122
y_123
y_124
y_125
y_126
y_127
y_128
y_129
y_130
y_131
y_132
y_133
y_134
y_135
y_136
y_137
y_138
y_139
y_140
y_141
y_142
y_143
y_144
y_145
y_146
y_147
y_148
y_149
y_150
y_151
y_152
y_153
y_154
y_155
y_156
y_157
y_158
y_159
y_160
y_161
y_162
y_163
y_164
y_165
y_166
y_167
y_168
y_169
y_170
y_171
y_172
y_173
y_174
y_175
y_176
y_177
y_178
y_179
y_180
y_181
y_182
y_183
y_184
y_185
y_186
y_187
y_188
y_189
y_190
y_191
y_192
y_193
y_194
y_195
y_196
y_197
y_198
y_199
y_200
y_201
y_202
y_203
y_204
y_205
y_206
y_207
y_208
y_209
y_210
y_211
y_212
y_213
y_214
y_215
y_216
y_217
y_218
y_219
y_220
y_221
y_222
y_223
y_224
y_225
y_226
y_227
y_228
y_229
y_230
y_231
y_232
y_233
y_234
y_235
y_236
y_237
y_238
y_239
y_240
y_241
y_242
y_243
y_244
y_245
y_246
y_247
y_248
y_249
y_250
y_251
y_252
y_253
y_254
y_255
y_256
y_257
y_258
y_259
y_260
y_261
y_262
y_263
y_264
y_265
y_266
y_267
y_268
y_269
y_270
y_271
y_272
y_273
y_274
y_275
y_276
y_277
y_278
y_279
y_280
y_281
y_282
y_283
y_284
y_285
y_286
y_287
y_288
y_289
y_290
y_291
y_292
y_293
y_294
y_295
y_296
y_297
y_298
y_299
y_300
y_301
y_302
y_303
y_304
y_305
y_306
y_307
y_308
y_309
y_310
y_311
y_312
y_313
y_314
y_315
y_316
y_317
y_318
y_319
y_320
y_321
y_322
y_323
y_324
y_325
y_326
y_327
y_328
y_329
y_330
y_331
y_332
y_333
y_334
y_335
y_336
y_337
y_338
y_339
y_340
y_341
y_342
y_343
y_344
y_345
y_346
y_347
y_348
y_349
y_350
y_351
y_352
y_353
y_354
y_355
y_356
y_357
y_358
y_359
y_360
y_361
y_362
y_363
y_364
y_365
y_366
y_367
y_368
y_369
y_370
y_371
y_372
y_373
y_374
y_375
y_376
y_377
y_378
y_379
y_380
y_381
y_382
y_383
y_384
End
