data/solutions/exact100kb/instance069.txt
VALUE 3271
34 2
23 7
15 11
16 15
31 23
24 23
27 11
31 29
31 15
36 34
43 35
36 35
38 34
43 41
43 11
50 49
50 34
58 50
63 31

